\ Model idol-model
\ LP format - for model browsing. Use MPS format to capture full model detail.
\ Signature: 0x68292446dd14d23a
Minimize
 
Subject To
 Lambda: __copy_x_50 + __copy_x_49 + __copy_x_48 + __copy_x_47
   + __copy_x_46 + __copy_x_45 + __copy_x_44 + __copy_x_43 + __copy_x_42
   + __copy_x_41 + __copy_x_40 + __copy_x_39 + __copy_x_38 + __copy_x_37
   + __copy_x_36 + __copy_x_35 + __copy_x_34 + __copy_x_33 + __copy_x_32
   + __copy_x_31 + __copy_x_30 + __copy_x_29 + __copy_x_28 + __copy_x_27
   + __copy_x_26 + __copy_x_25 + __copy_x_24 + __copy_x_23 + __copy_x_22
   + __copy_x_21 + __copy_x_20 + __copy_x_19 + __copy_x_18 + __copy_x_17
   + __copy_x_16 + __copy_x_15 + __copy_x_14 + __copy_x_13 + __copy_x_12
   + __copy_x_11 + __copy_x_10 + __copy_x_9 + __copy_x_7 + __copy_x_6
   + __copy_x_5 + __copy_x_3 + __copy_x_1 <= 1
 V1: y_1 + __copy_a_1 <= 1
 V3: y_3 + __copy_a_3 <= 1
 V5: y_5 + __copy_a_5 <= 1
 V6: y_6 + __copy_a_6 <= 1
 V7: y_7 + __copy_a_7 <= 1
 V9: y_9 + __copy_a_9 <= 1
 V10: y_10 + __copy_a_10 <= 1
 V11: y_11 + __copy_a_11 <= 1
 V12: y_12 + __copy_a_12 <= 1
 V13: y_13 + __copy_a_13 <= 1
 V14: y_14 + __copy_a_14 <= 1
 V15: y_15 + __copy_a_15 <= 1
 V16: y_16 + __copy_a_16 <= 1
 V17: y_17 + __copy_a_17 <= 1
 V18: y_18 + __copy_a_18 <= 1
 V19: y_19 + __copy_a_19 <= 1
 V20: y_20 + __copy_a_20 <= 1
 V21: y_21 + __copy_a_21 <= 1
 V22: y_22 + __copy_a_22 <= 1
 V23: y_23 + __copy_a_23 <= 1
 V24: y_24 + __copy_a_24 <= 1
 V25: y_25 + __copy_a_25 <= 1
 V26: y_26 + __copy_a_26 <= 1
 V27: y_27 + __copy_a_27 <= 1
 V28: y_28 + __copy_a_28 <= 1
 V29: y_29 + __copy_a_29 <= 1
 V30: y_30 + __copy_a_30 <= 1
 V31: y_31 + __copy_a_31 <= 1
 V32: y_32 + __copy_a_32 <= 1
 V33: y_33 + __copy_a_33 <= 1
 V34: y_34 + __copy_a_34 <= 1
 V35: y_35 + __copy_a_35 <= 1
 V36: y_36 + __copy_a_36 <= 1
 V37: y_37 + __copy_a_37 <= 1
 V38: y_38 + __copy_a_38 <= 1
 V39: y_39 + __copy_a_39 <= 1
 V40: y_40 + __copy_a_40 <= 1
 V41: y_41 + __copy_a_41 <= 1
 V42: y_42 + __copy_a_42 <= 1
 V43: y_43 + __copy_a_43 <= 1
 V44: y_44 + __copy_a_44 <= 1
 V45: y_45 + __copy_a_45 <= 1
 V46: y_46 + __copy_a_46 <= 1
 V47: y_47 + __copy_a_47 <= 1
 V48: y_48 + __copy_a_48 <= 1
 V49: y_49 + __copy_a_49 <= 1
 V50: y_50 + __copy_a_50 <= 1
 A3-1: - __copy_x_1 + __copy_a_1 - __copy_a_3 <= 0
 A1-3: - __copy_x_3 - __copy_a_1 + __copy_a_3 <= 0
 A6-5: - __copy_x_5 + __copy_a_5 - __copy_a_6 <= 0
 A5-6: - __copy_x_6 - __copy_a_5 + __copy_a_6 <= 0
 A7-1: - __copy_x_1 + __copy_a_1 - __copy_a_7 <= 0
 A1-7: - __copy_x_7 - __copy_a_1 + __copy_a_7 <= 0
 A10-7: - __copy_x_7 + __copy_a_7 - __copy_a_10 <= 0
 A7-10: - __copy_x_10 - __copy_a_7 + __copy_a_10 <= 0
 A12-9: - __copy_x_9 + __copy_a_9 - __copy_a_12 <= 0
 A9-12: - __copy_x_12 - __copy_a_9 + __copy_a_12 <= 0
 A14-3: - __copy_x_3 + __copy_a_3 - __copy_a_14 <= 0
 A3-14: - __copy_x_14 - __copy_a_3 + __copy_a_14 <= 0
 A18-6: - __copy_x_6 + __copy_a_6 - __copy_a_18 <= 0
 A6-18: - __copy_x_18 - __copy_a_6 + __copy_a_18 <= 0
 A19-11: - __copy_x_11 + __copy_a_11 - __copy_a_19 <= 0
 A11-19: - __copy_x_19 - __copy_a_11 + __copy_a_19 <= 0
 A20-17: - __copy_x_17 + __copy_a_17 - __copy_a_20 <= 0
 A17-20: - __copy_x_20 - __copy_a_17 + __copy_a_20 <= 0
 A21-13: - __copy_x_13 + __copy_a_13 - __copy_a_21 <= 0
 A13-21: - __copy_x_21 - __copy_a_13 + __copy_a_21 <= 0
 A23-19: - __copy_x_19 + __copy_a_19 - __copy_a_23 <= 0
 A19-23: - __copy_x_23 - __copy_a_19 + __copy_a_23 <= 0
 A25-17: - __copy_x_17 + __copy_a_17 - __copy_a_25 <= 0
 A17-25: - __copy_x_25 - __copy_a_17 + __copy_a_25 <= 0
 A26-16: - __copy_x_16 + __copy_a_16 - __copy_a_26 <= 0
 A16-26: - __copy_x_26 - __copy_a_16 + __copy_a_26 <= 0
 A28-23: - __copy_x_23 + __copy_a_23 - __copy_a_28 <= 0
 A23-28: - __copy_x_28 - __copy_a_23 + __copy_a_28 <= 0
 A29-16: - __copy_x_16 + __copy_a_16 - __copy_a_29 <= 0
 A16-29: - __copy_x_29 - __copy_a_16 + __copy_a_29 <= 0
 A30-19: - __copy_x_19 + __copy_a_19 - __copy_a_30 <= 0
 A19-30: - __copy_x_30 - __copy_a_19 + __copy_a_30 <= 0
 A31-29: - __copy_x_29 + __copy_a_29 - __copy_a_31 <= 0
 A29-31: - __copy_x_31 - __copy_a_29 + __copy_a_31 <= 0
 A32-16: - __copy_x_16 + __copy_a_16 - __copy_a_32 <= 0
 A16-32: - __copy_x_32 - __copy_a_16 + __copy_a_32 <= 0
 A33-18: - __copy_x_18 + __copy_a_18 - __copy_a_33 <= 0
 A18-33: - __copy_x_33 - __copy_a_18 + __copy_a_33 <= 0
 A34-22: - __copy_x_22 + __copy_a_22 - __copy_a_34 <= 0
 A22-34: - __copy_x_34 - __copy_a_22 + __copy_a_34 <= 0
 A35-30: - __copy_x_30 + __copy_a_30 - __copy_a_35 <= 0
 A30-35: - __copy_x_35 - __copy_a_30 + __copy_a_35 <= 0
 A36-15: - __copy_x_15 + __copy_a_15 - __copy_a_36 <= 0
 A15-36: - __copy_x_36 - __copy_a_15 + __copy_a_36 <= 0
 A37-30: - __copy_x_30 + __copy_a_30 - __copy_a_37 <= 0
 A30-37: - __copy_x_37 - __copy_a_30 + __copy_a_37 <= 0
 A38-23: - __copy_x_23 + __copy_a_23 - __copy_a_38 <= 0
 A23-38: - __copy_x_38 - __copy_a_23 + __copy_a_38 <= 0
 A39-5: - __copy_x_5 + __copy_a_5 - __copy_a_39 <= 0
 A5-39: - __copy_x_39 - __copy_a_5 + __copy_a_39 <= 0
 A41-21: - __copy_x_21 + __copy_a_21 - __copy_a_41 <= 0
 A21-41: - __copy_x_41 - __copy_a_21 + __copy_a_41 <= 0
 A42-11: - __copy_x_11 + __copy_a_11 - __copy_a_42 <= 0
 A11-42: - __copy_x_42 - __copy_a_11 + __copy_a_42 <= 0
 A44-22: - __copy_x_22 + __copy_a_22 - __copy_a_44 <= 0
 A22-44: - __copy_x_44 - __copy_a_22 + __copy_a_44 <= 0
 A45-9: - __copy_x_9 + __copy_a_9 - __copy_a_45 <= 0
 A9-45: - __copy_x_45 - __copy_a_9 + __copy_a_45 <= 0
 A46-13: - __copy_x_13 + __copy_a_13 - __copy_a_46 <= 0
 A13-46: - __copy_x_46 - __copy_a_13 + __copy_a_46 <= 0
 A47-25: - __copy_x_25 + __copy_a_25 - __copy_a_47 <= 0
 A25-47: - __copy_x_47 - __copy_a_25 + __copy_a_47 <= 0
 A48-22: - __copy_x_22 + __copy_a_22 - __copy_a_48 <= 0
 A22-48: - __copy_x_48 - __copy_a_22 + __copy_a_48 <= 0
 A49-31: - __copy_x_31 + __copy_a_31 - __copy_a_49 <= 0
 A31-49: - __copy_x_49 - __copy_a_31 + __copy_a_49 <= 0
 A50-41: - __copy_x_41 + __copy_a_41 - __copy_a_50 <= 0
 A41-50: - __copy_x_50 - __copy_a_41 + __copy_a_50 <= 0
Bounds
Binaries
 __copy_x_50 __copy_x_49 __copy_x_48 __copy_x_47 __copy_x_46 __copy_x_45
 __copy_x_44 __copy_x_43 __copy_x_42 __copy_x_41 __copy_x_40 __copy_x_39
 __copy_x_38 __copy_x_37 __copy_x_36 __copy_x_35 __copy_x_34 __copy_x_33
 __copy_x_32 __copy_x_31 __copy_x_30 __copy_x_29 __copy_x_28 __copy_x_27
 __copy_x_26 __copy_x_25 __copy_x_24 __copy_x_23 __copy_x_22 __copy_x_21
 __copy_x_20 __copy_x_19 __copy_x_18 __copy_x_17 __copy_x_16 __copy_x_15
 __copy_x_14 __copy_x_13 __copy_x_12 __copy_x_11 __copy_x_10 __copy_x_9
 __copy_x_7 __copy_x_6 __copy_x_5 __copy_x_3 __copy_x_1 y_1 __copy_a_1 y_3
 __copy_a_3 y_5 __copy_a_5 y_6 __copy_a_6 y_7 __copy_a_7 y_9 __copy_a_9
 y_10 __copy_a_10 y_11 __copy_a_11 y_12 __copy_a_12 y_13 __copy_a_13 y_14
 __copy_a_14 y_15 __copy_a_15 y_16 __copy_a_16 y_17 __copy_a_17 y_18
 __copy_a_18 y_19 __copy_a_19 y_20 __copy_a_20 y_21 __copy_a_21 y_22
 __copy_a_22 y_23 __copy_a_23 y_24 __copy_a_24 y_25 __copy_a_25 y_26
 __copy_a_26 y_27 __copy_a_27 y_28 __copy_a_28 y_29 __copy_a_29 y_30
 __copy_a_30 y_31 __copy_a_31 y_32 __copy_a_32 y_33 __copy_a_33 y_34
 __copy_a_34 y_35 __copy_a_35 y_36 __copy_a_36 y_37 __copy_a_37 y_38
 __copy_a_38 y_39 __copy_a_39 y_40 __copy_a_40 y_41 __copy_a_41 y_42
 __copy_a_42 y_43 __copy_a_43 y_44 __copy_a_44 y_45 __copy_a_45 y_46
 __copy_a_46 y_47 __copy_a_47 y_48 __copy_a_48 y_49 __copy_a_49 y_50
 __copy_a_50
End
